8594.0
0 0 1 0 0 0 1 1 1 1 0 0 0 1 0 0 0 1 1 0 
17 17 17 18 18 18 8 8 8 8 8 8 2 8 2 2 2 2 8 6 6 6 2 6 2 2 6 2 6 6 6 6 6 6 6 6 6 6 6 7 7 7 0 7 0 0 0 0 0 0 0 0 7 7 7 7 7 7 7 7 7 9 13 7 9 7 9 7 7 9 13 7 9 13 17 13 9 13 9 9 13 15 15 15 15 15 15 15 15 15 15 18 18 18 18 17 18 18 18 18 